language ESSENCE' 1.0
letting instance be [[5, 0, 0, 0, 34, 0, 31, 0, 41, 0, 0, 0, 0, 0, 0, 40, 0, 29, 35, 21, 24, 0, 0, 0, 0, 49, 0, 0, 0, 44, 50, 0, 0, 47, 0, 0, 0, 0, 0, 0, 23, 13, 4, 43, 0, 36, 22, 45, 0, 25], 
[7, 13, 50, 0, 0, 0, 24, 9, 35, 0, 2, 29, 0, 31, 0, 0, 0, 49, 0, 0, 0, 25, 0, 0, 0, 27, 32, 0, 45, 0, 5, 0, 0, 0, 0, 0, 34, 0, 47, 39, 0, 0, 0, 37, 0, 0, 0, 0, 0, 38], 
[0, 0, 0, 14, 0, 0, 0, 0, 0, 0, 48, 0, 12, 27, 0, 16, 0, 0, 0, 0, 0, 21, 0, 0, 0, 0, 0, 0, 0, 0, 0, 19, 47, 44, 18, 49, 1, 24, 34, 0, 0, 28, 46, 0, 17, 22, 0, 25, 43, 4], 
[40, 0, 24, 49, 4, 0, 15, 0, 1, 32, 0, 0, 0, 0, 0, 0, 0, 0, 0, 0, 50, 0, 0, 31, 0, 11, 41, 38, 0, 0, 0, 0, 0, 20, 0, 0, 0, 0, 0, 48, 26, 43, 47, 45, 46, 0, 16, 0, 0, 0], 
[49, 48, 0, 0, 0, 0, 0, 0, 21, 0, 0, 0, 0, 0, 0, 0, 31, 18, 34, 0, 17, 0, 47, 43, 44, 0, 46, 0, 0, 0, 0, 0, 0, 0, 38, 14, 0, 2, 0, 0, 0, 3, 7, 0, 0, 10, 36, 0, 50, 45], 
[0, 19, 0, 0, 0, 24, 0, 39, 0, 0, 0, 0, 40, 0, 16, 14, 0, 50, 0, 0, 0, 23, 0, 32, 0, 0, 49, 48, 0, 8, 44, 0, 45, 0, 31, 0, 0, 0, 9, 42, 0, 0, 0, 18, 0, 0, 17, 36, 0, 28], 
[0, 2, 0, 0, 0, 28, 0, 0, 50, 46, 0, 0, 0, 34, 0, 32, 30, 38, 18, 0, 0, 0, 11, 0, 0, 0, 0, 0, 0, 48, 0, 0, 0, 0, 45, 0, 9, 35, 0, 17, 27, 37, 0, 25, 0, 20, 0, 47, 49, 0], 
[2, 0, 18, 0, 0, 0, 43, 0, 0, 0, 0, 26, 0, 0, 50, 0, 0, 8, 0, 4, 0, 0, 0, 0, 45, 0, 0, 0, 32, 0, 0, 0, 0, 3, 47, 9, 42, 0, 48, 0, 41, 0, 0, 23, 39, 33, 0, 0, 35, 10], 
[0, 0, 9, 0, 36, 49, 45, 0, 31, 13, 20, 0, 32, 0, 47, 0, 0, 0, 38, 0, 22, 0, 0, 0, 30, 15, 0, 0, 44, 43, 46, 50, 42, 0, 23, 0, 0, 34, 0, 0, 16, 0, 0, 0, 41, 0, 0, 0, 0, 0], 
[0, 44, 0, 0, 0, 0, 0, 0, 45, 0, 0, 0, 48, 41, 0, 0, 0, 40, 0, 0, 0, 18, 27, 0, 0, 10, 28, 49, 0, 0, 32, 0, 0, 43, 0, 33, 0, 47, 3, 38, 0, 0, 30, 21, 50, 0, 0, 0, 0, 39], 
[0, 0, 0, 13, 44, 0, 50, 47, 42, 0, 0, 0, 37, 0, 45, 35, 0, 0, 30, 0, 0, 36, 18, 0, 0, 0, 0, 10, 0, 40, 21, 8, 43, 0, 0, 0, 41, 49, 0, 46, 48, 0, 38, 0, 0, 0, 0, 0, 0, 0], 
[6, 0, 0, 0, 0, 39, 0, 35, 0, 0, 0, 0, 38, 0, 0, 43, 37, 0, 0, 50, 0, 49, 0, 48, 0, 34, 0, 0, 0, 0, 31, 45, 44, 40, 9, 42, 46, 23, 0, 0, 0, 47, 0, 41, 0, 0, 0, 0, 0, 0], 
[42, 23, 0, 44, 47, 0, 0, 0, 0, 0, 49, 37, 0, 46, 0, 0, 0, 33, 0, 0, 12, 48, 45, 0, 20, 0, 50, 11, 0, 0, 0, 43, 0, 0, 0, 0, 0, 0, 1, 41, 4, 0, 8, 0, 0, 0, 0, 40, 0, 9], 
[0, 0, 43, 0, 0, 0, 47, 0, 0, 0, 0, 32, 0, 0, 33, 44, 38, 31, 49, 41, 0, 39, 46, 0, 15, 0, 0, 34, 35, 0, 0, 0, 11, 36, 50, 45, 48, 0, 0, 0, 0, 0, 0, 0, 0, 0, 0, 0, 18, 42], 
[0, 0, 0, 47, 48, 0, 41, 36, 0, 0, 0, 0, 0, 0, 0, 33, 0, 0, 0, 42, 0, 50, 0, 0, 0, 43, 0, 0, 39, 0, 0, 0, 38, 46, 37, 44, 29, 0, 40, 31, 0, 49, 45, 0, 0, 0, 0, 35, 34, 0], 
[0, 0, 48, 0, 32, 0, 42, 2, 4, 49, 9, 0, 43, 39, 13, 0, 0, 0, 0, 44, 27, 0, 0, 35, 0, 0, 0, 0, 0, 0, 0, 0, 0, 0, 26, 46, 0, 0, 24, 45, 47, 50, 41, 0, 40, 38, 0, 0, 0, 0], 
[0, 45, 36, 37, 0, 47, 0, 0, 0, 50, 0, 15, 0, 38, 0, 0, 40, 0, 0, 0, 0, 31, 49, 0, 0, 0, 0, 42, 43, 0, 39, 0, 0, 7, 6, 48, 0, 46, 0, 0, 22, 30, 0, 0, 44, 28, 0, 0, 0, 41], 
[0, 0, 39, 0, 0, 0, 1, 24, 0, 0, 25, 0, 27, 45, 0, 0, 49, 14, 48, 0, 26, 0, 43, 28, 36, 0, 44, 0, 31, 0, 0, 46, 29, 9, 0, 15, 13, 0, 0, 0, 0, 0, 0, 0, 18, 0, 47, 0, 0, 0], 
[0, 0, 0, 0, 45, 41, 0, 6, 0, 0, 0, 23, 39, 0, 5, 37, 0, 46, 0, 0, 0, 0, 0, 0, 9, 0, 0, 0, 0, 0, 0, 44, 0, 4, 0, 50, 21, 0, 13, 0, 49, 0, 0, 48, 43, 42, 2, 0, 38, 17], 
[41, 0, 0, 0, 7, 5, 29, 45, 49, 0, 0, 0, 0, 0, 0, 0, 17, 47, 0, 46, 0, 4, 0, 0, 50, 48, 38, 0, 0, 39, 0, 0, 0, 0, 0, 0, 12, 20, 0, 0, 40, 19, 0, 0, 30, 0, 44, 28, 0, 43], 
[48, 38, 1, 0, 5, 44, 49, 0, 20, 0, 0, 33, 46, 0, 0, 0, 47, 0, 37, 45, 42, 0, 0, 0, 0, 0, 0, 0, 0, 0, 43, 0, 0, 21, 13, 0, 0, 0, 50, 0, 32, 40, 0, 0, 0, 0, 0, 0, 0, 34], 
[45, 0, 0, 34, 0, 0, 0, 0, 0, 44, 50, 0, 0, 0, 36, 0, 42, 0, 0, 0, 29, 0, 0, 46, 0, 0, 0, 0, 0, 37, 0, 0, 48, 38, 0, 25, 0, 0, 41, 0, 0, 0, 39, 40, 32, 43, 49, 0, 47, 21], 
[0, 0, 17, 0, 0, 34, 0, 0, 0, 0, 0, 0, 15, 0, 0, 0, 39, 30, 0, 0, 35, 0, 0, 44, 46, 50, 0, 0, 0, 45, 48, 13, 0, 32, 0, 0, 0, 0, 0, 0, 43, 0, 42, 47, 29, 40, 41, 38, 0, 27], 
[0, 35, 46, 41, 0, 48, 0, 0, 0, 34, 0, 11, 0, 12, 0, 0, 0, 37, 50, 0, 0, 0, 0, 0, 0, 0, 9, 0, 0, 0, 42, 40, 0, 0, 0, 32, 45, 0, 44, 47, 0, 38, 43, 49, 0, 39, 0, 0, 0, 0], 
[0, 31, 0, 0, 41, 0, 0, 48, 47, 0, 3, 46, 42, 49, 0, 0, 32, 0, 0, 17, 0, 9, 26, 40, 0, 35, 0, 43, 0, 28, 0, 36, 50, 0, 0, 10, 0, 0, 0, 0, 45, 0, 0, 0, 0, 0, 0, 44, 0, 0], 
[18, 16, 0, 39, 46, 0, 6, 0, 38, 0, 47, 0, 0, 33, 27, 45, 43, 0, 0, 0, 14, 0, 0, 50, 0, 0, 0, 35, 0, 0, 49, 42, 0, 0, 0, 0, 20, 0, 36, 0, 0, 0, 0, 0, 37, 0, 48, 41, 19, 0], 
[0, 0, 40, 0, 11, 17, 28, 42, 0, 4, 0, 0, 45, 2, 0, 38, 0, 41, 0, 0, 0, 0, 35, 0, 37, 0, 48, 0, 3, 0, 23, 47, 46, 0, 16, 18, 49, 0, 0, 43, 0, 0, 0, 0, 0, 0, 0, 0, 0, 0], 
[0, 0, 0, 0, 50, 0, 44, 0, 0, 48, 29, 0, 0, 40, 34, 30, 0, 0, 0, 43, 0, 0, 41, 0, 0, 39, 37, 0, 46, 0, 0, 38, 31, 0, 0, 0, 0, 45, 42, 49, 0, 35, 0, 32, 47, 0, 0, 26, 36, 0], 
[0, 0, 0, 0, 0, 0, 0, 8, 0, 26, 0, 39, 0, 43, 37, 42, 0, 0, 0, 0, 0, 0, 50, 38, 40, 0, 0, 0, 0, 6, 0, 0, 35, 0, 0, 47, 36, 41, 0, 34, 13, 44, 0, 46, 0, 15, 29, 0, 45, 0], 
[24, 0, 0, 45, 0, 50, 0, 27, 6, 0, 42, 0, 16, 36, 44, 0, 33, 0, 43, 0, 0, 0, 0, 9, 47, 46, 0, 41, 17, 0, 0, 35, 0, 0, 0, 0, 37, 0, 0, 3, 0, 0, 48, 0, 0, 49, 0, 0, 40, 0], 
[20, 37, 41, 16, 12, 33, 0, 0, 30, 0, 24, 0, 21, 0, 9, 0, 0, 44, 0, 0, 0, 0, 17, 36, 0, 0, 47, 7, 0, 0, 11, 49, 6, 0, 0, 0, 0, 10, 0, 0, 0, 48, 0, 0, 45, 0, 46, 0, 0, 0], 
[0, 0, 0, 0, 0, 45, 0, 0, 0, 0, 0, 0, 0, 0, 32, 34, 21, 15, 41, 49, 0, 0, 0, 0, 48, 37, 40, 36, 0, 35, 38, 0, 4, 12, 46, 0, 0, 0, 43, 28, 50, 0, 0, 42, 0, 0, 0, 39, 24, 0], 
[0, 0, 0, 42, 0, 0, 0, 10, 0, 0, 14, 38, 36, 32, 3, 46, 0, 0, 0, 47, 0, 0, 13, 0, 0, 0, 0, 0, 48, 0, 0, 41, 8, 39, 43, 37, 5, 0, 0, 0, 0, 0, 40, 12, 49, 0, 50, 0, 0, 0], 
[0, 0, 0, 32, 0, 0, 0, 0, 0, 39, 38, 36, 0, 37, 0, 50, 0, 35, 42, 11, 0, 47, 0, 0, 0, 40, 43, 33, 0, 0, 45, 0, 0, 49, 0, 1, 0, 0, 0, 44, 0, 41, 0, 0, 0, 46, 0, 0, 48, 0], 
[0, 0, 0, 38, 3, 0, 40, 0, 0, 0, 0, 31, 0, 42, 0, 0, 0, 48, 0, 22, 46, 0, 34, 0, 0, 33, 0, 0, 41, 49, 47, 0, 39, 0, 0, 28, 0, 50, 0, 0, 0, 0, 0, 0, 0, 4, 30, 37, 0, 44], 
[0, 0, 45, 0, 27, 0, 0, 0, 0, 0, 0, 40, 0, 0, 0, 0, 0, 0, 39, 32, 0, 34, 0, 0, 49, 0, 42, 47, 38, 0, 0, 30, 0, 37, 12, 0, 0, 43, 46, 0, 0, 20, 0, 44, 0, 50, 35, 48, 41, 0], 
[47, 41, 0, 43, 0, 23, 39, 50, 0, 0, 0, 0, 0, 0, 0, 0, 36, 0, 0, 0, 10, 0, 44, 45, 42, 0, 31, 0, 0, 46, 0, 37, 0, 0, 22, 0, 35, 0, 0, 40, 0, 0, 0, 38, 13, 0, 0, 34, 0, 48], 
[33, 0, 0, 36, 43, 35, 48, 0, 39, 42, 45, 34, 49, 44, 46, 41, 0, 24, 16, 0, 28, 27, 29, 0, 0, 47, 0, 0, 0, 0, 0, 0, 0, 0, 0, 0, 0, 0, 0, 0, 19, 0, 50, 0, 0, 0, 40, 0, 0, 0], 
[0, 27, 0, 46, 38, 0, 0, 49, 0, 40, 36, 50, 0, 4, 0, 39, 0, 0, 33, 0, 0, 0, 0, 37, 43, 0, 45, 0, 47, 42, 0, 48, 0, 0, 25, 0, 0, 30, 0, 0, 44, 0, 0, 0, 35, 0, 0, 0, 0, 29], 
[50, 33, 34, 0, 49, 46, 0, 0, 44, 18, 0, 0, 0, 0, 0, 0, 48, 0, 0, 0, 32, 0, 0, 47, 35, 30, 0, 0, 0, 36, 0, 0, 0, 0, 0, 0, 0, 0, 31, 26, 39, 27, 12, 0, 0, 41, 20, 0, 0, 40], 
[0, 0, 38, 0, 0, 36, 0, 0, 0, 0, 0, 0, 0, 0, 48, 0, 5, 0, 47, 25, 20, 37, 0, 12, 0, 26, 34, 44, 40, 41, 0, 0, 33, 0, 0, 0, 31, 42, 49, 0, 46, 0, 0, 39, 0, 0, 45, 50, 0, 0], 
[0, 36, 19, 0, 0, 0, 0, 0, 0, 47, 44, 42, 0, 0, 38, 48, 0, 0, 0, 0, 0, 35, 30, 41, 0, 0, 0, 0, 0, 34, 0, 0, 40, 0, 49, 2, 43, 39, 0, 50, 0, 45, 0, 0, 0, 0, 0, 46, 32, 0], 
[43, 49, 0, 0, 28, 0, 0, 44, 37, 0, 41, 0, 0, 0, 31, 0, 0, 0, 23, 36, 45, 0, 0, 0, 4, 0, 0, 0, 0, 47, 0, 39, 0, 48, 0, 0, 0, 38, 0, 18, 0, 46, 33, 50, 42, 0, 0, 0, 0, 0], 
[0, 0, 37, 0, 0, 0, 0, 41, 0, 38, 0, 0, 0, 0, 40, 47, 45, 0, 7, 0, 30, 19, 48, 49, 0, 0, 0, 50, 0, 27, 0, 0, 0, 0, 0, 39, 0, 32, 0, 0, 0, 0, 0, 0, 0, 26, 42, 43, 44, 46], 
[44, 14, 47, 30, 0, 43, 0, 46, 0, 41, 4, 0, 33, 50, 0, 0, 0, 0, 17, 38, 0, 0, 0, 39, 0, 0, 0, 25, 37, 0, 6, 0, 0, 0, 0, 0, 0, 0, 45, 0, 42, 29, 49, 0, 48, 0, 0, 0, 0, 0], 
[0, 40, 0, 35, 0, 21, 0, 0, 0, 43, 16, 47, 34, 0, 0, 0, 50, 0, 0, 31, 0, 0, 0, 0, 0, 0, 30, 22, 42, 0, 0, 0, 19, 0, 0, 0, 0, 48, 0, 37, 36, 0, 44, 0, 0, 45, 39, 49, 46, 23], 
[0, 50, 0, 31, 0, 0, 30, 34, 43, 45, 17, 0, 47, 0, 0, 23, 0, 0, 46, 0, 0, 0, 7, 3, 16, 44, 39, 32, 0, 0, 40, 0, 49, 0, 0, 0, 38, 0, 35, 0, 0, 0, 0, 0, 0, 48, 0, 0, 8, 0], 
[0, 0, 0, 0, 0, 0, 46, 0, 0, 36, 0, 0, 31, 0, 42, 0, 0, 17, 0, 0, 2, 0, 40, 0, 0, 0, 35, 45, 49, 30, 14, 34, 15, 11, 41, 38, 50, 44, 0, 0, 0, 0, 0, 0, 0, 0, 33, 0, 0, 47], 
[46, 0, 44, 0, 0, 40, 0, 38, 48, 37, 0, 35, 41, 0, 43, 49, 11, 0, 45, 0, 0, 32, 0, 0, 0, 42, 0, 0, 50, 0, 0, 0, 0, 0, 0, 0, 0, 0, 0, 36, 0, 0, 0, 9, 0, 47, 24, 12, 20, 0], 
[22, 0, 12, 0, 42, 30, 38, 0, 46, 35, 13, 49, 0, 48, 0, 0, 0, 43, 44, 29, 47, 33, 0, 34, 26, 45, 0, 0, 36, 0, 41, 2, 0, 0, 0, 0, 0, 0, 0, 0, 0, 0, 27, 0, 0, 0, 0, 0, 0, 0]]
